RT is False
Default write of storage_offers_DA.csv just to have a file (but constraint should be inactive)
Reading model...
...model read.
creating competitive generators file...
...competitive generators recorded.
Loading data...
.. day-ahead data with real-time VRE data read.
Compiling instance...
...instance created.
Creating Offer Mitigation (model will solve as dispatch if TRUE)...
Solving...

Welcome to IBM(R) ILOG(R) CPLEX(R) Interactive Optimizer 12.9.0.0
  with Simplex, Mixed Integer & Barrier Optimizers
5725-A06 5725-A29 5724-Y48 5724-Y49 5724-Y54 5724-Y55 5655-Y21
Copyright IBM Corp. 1988, 2019.  All Rights Reserved.

Type 'help' for a list of available commands.
Type 'help' followed by a command name for more
information on commands.

CPLEX> Logfile 'cplex.log' closed.
Logfile 'C:\Users\llavin\Desktop\test919\logs\tmp0ps_m7rc.cplex.log' open.
CPLEX> New value for parallel optimization mode: -1
CPLEX> New value for mixed integer optimality gap tolerance: 0.01
CPLEX> New value for integrality tolerance: 1e-09
CPLEX> New value for feasibility tolerance: 0.01
CPLEX> New value for deterministic time limit in ticks: 75000
CPLEX> Problem 'C:\Users\llavin\Desktop\test919\logs\tmp519sfxxr.pyomo.lp' read.
Read time = 0.06 sec. (3.04 ticks)
CPLEX> Problem name         : C:\Users\llavin\Desktop\test919\logs\tmp519sfxxr.pyomo.lp
Objective sense      : Minimize
Variables            :   26081  [Nneg: 1,  Box: 21616,  Free: 4464]
Objective nonzeros   :    2496
Linear constraints   :   27515  [Less: 14006,  Greater: 4416,  Equal: 9093]
  Nonzeros           :   89267
  RHS nonzeros       :   12271

Variables            : Min LB: -5000.000        Max UB: 1000000.       
Objective nonzeros   : Min   : 15.73158         Max   : 124.0997       
Linear constraints   :
  Nonzeros           : Min   : 0.8500000        Max   : 3000.000       
  RHS nonzeros       : Min   : 0.4000000        Max   : 5000.000       
CPLEX> CPXPARAM_Parallel                                -1
CPXPARAM_Simplex_Tolerances_Feasibility          0.01
CPXPARAM_DetTimeLimit                            75000
CPXPARAM_MIP_Tolerances_MIPGap                   0.01
CPXPARAM_MIP_Tolerances_Integrality              1.0000000000000001e-09
Parallel mode: opportunistic, using up to 32 threads for concurrent optimization.
Tried aggregator 1 time.
LP Presolve eliminated 21353 rows and 15463 columns.
Aggregator did 770 substitutions.
Reduced LP has 5392 rows, 9848 columns, and 31812 nonzeros.
Presolve time = 0.06 sec. (30.44 ticks)
Symmetry aggregator did 5563 additional substitutions.

Iteration log . . .
Iteration:     1   Dual objective     =             0.000000
Perturbation started.
Iteration:   101   Dual objective     =             0.000000
Iteration:   331   Dual objective     =             1.128310
Iteration:   582   Dual objective     =             1.659323
Iteration:   841   Dual objective     =             1.799201
Iteration:  1045   Dual objective     =             1.912867
Iteration:  1311   Dual objective     =             1.958038
Iteration:  1561   Dual objective     =             1.989300
Iteration:  1776   Dual objective     =             2.012822
Iteration:  1978   Dual objective     =         72209.587625
Iteration:  2163   Dual objective     =        178121.311989
Iteration:  2360   Dual objective     =        195872.103450
Iteration:  2585   Dual objective     =        212508.239534
Iteration:  2986   Dual objective     =        217533.644062
Removing perturbation.
Dual superbasis not built.
Using devex.

Primal simplex solved model.


Primal simplex - Optimal:  Objective =  2.1794618600e+05
Solution time =    0.17 sec.  Iterations = 1630 (1091)
Deterministic time = 80.86 ticks  (470.14 ticks/sec)

CPLEX> Solution written to file 'C:\Users\llavin\Desktop\test919\logs\tmp3r_dv7gp.cplex.sol'.
CPLEX> Exporting results... 
...storage offer mitigation file created
Converting model to MPEC...
...converted
NOTE: initial MIP solve with only storage competitive to get feasible solution
Solving...

Welcome to IBM(R) ILOG(R) CPLEX(R) Interactive Optimizer 12.9.0.0
  with Simplex, Mixed Integer & Barrier Optimizers
5725-A06 5725-A29 5724-Y48 5724-Y49 5724-Y54 5724-Y55 5655-Y21
Copyright IBM Corp. 1988, 2019.  All Rights Reserved.

Type 'help' for a list of available commands.
Type 'help' followed by a command name for more
information on commands.

CPLEX> Logfile 'cplex.log' closed.
Logfile 'C:\Users\llavin\Desktop\test919\logs\tmpl8fujuw9.cplex.log' open.
CPLEX> New value for parallel optimization mode: -1
CPLEX> New value for mixed integer optimality gap tolerance: 0.01
CPLEX> New value for integrality tolerance: 1e-09
CPLEX> New value for feasibility tolerance: 0.01
CPLEX> New value for deterministic time limit in ticks: 75000
CPLEX> Problem 'C:\Users\llavin\Desktop\test919\logs\tmptb2n4oz8.pyomo.lp' read.
Read time = 0.23 sec. (14.78 ticks)
CPLEX> Problem name         : C:\Users\llavin\Desktop\test919\logs\tmptb2n4oz8.pyomo.lp
Objective sense      : Maximize
Variables            :   53805  [Nneg: 1,  Box: 22000,  Free: 4464,
                                 Binary: 27340]
Objective nonzeros   :    8980
Linear constraints   :  123205  [Less: 41346,  Greater: 59096,  Equal: 22763]
  Nonzeros           :  291801
  RHS nonzeros       :   67443

Variables            : Min LB: -5000.000        Max UB: 1000000.       
Objective nonzeros   : Min   : 0.4000000        Max   : 832.9000       
Linear constraints   :
  Nonzeros           : Min   : 0.4000000        Max   : 1000000.       
  RHS nonzeros       : Min   : 0.4000000        Max   : 1000000.       
CPLEX> CPXPARAM_Parallel                                -1
CPXPARAM_Simplex_Tolerances_Feasibility          0.01
CPXPARAM_DetTimeLimit                            75000
CPXPARAM_MIP_Tolerances_MIPGap                   0.01
CPXPARAM_MIP_Tolerances_Integrality              1.0000000000000001e-09
Tried aggregator 3 times.
MIP Presolve eliminated 88678 rows and 18978 columns.
MIP Presolve added 3371 rows and 0 columns.
MIP Presolve modified 24878 coefficients.
Aggregator did 12967 substitutions.
Reduced MIP has 24931 rows, 21304 columns, and 71121 nonzeros.
Reduced MIP has 8399 binaries, 0 generals, 0 SOSs, and 0 indicators.
Presolve time = 0.28 sec. (176.16 ticks)
Probing fixed 384 vars, tightened 2811 bounds.
Probing time = 1.22 sec. (883.28 ticks)
Tried aggregator 2 times.
MIP Presolve eliminated 869 rows and 769 columns.
MIP Presolve modified 2192 coefficients.
Aggregator did 43 substitutions.
Reduced MIP has 24019 rows, 20492 columns, and 68480 nonzeros.
Reduced MIP has 8015 binaries, 0 generals, 0 SOSs, and 0 indicators.
Presolve time = 0.09 sec. (69.38 ticks)
Probing time = 0.03 sec. (15.67 ticks)
Clique table members: 6247.
MIP emphasis: balance optimality and feasibility.
MIP search method: dynamic search.
Parallel mode: opportunistic, using up to 32 threads.
Root relaxation solution time = 0.52 sec. (282.26 ticks)

        Nodes                                         Cuts/
   Node  Left     Objective  IInf  Best Integer    Best Bound    ItCnt     Gap

      0     0     3380.9712   250                   3380.9712       30         
*     0+    0                         3380.9712     3380.9712             0.00%
      0     0        cutoff           3380.9712     3380.9712       30    0.00%
Elapsed time = 3.06 sec. (1883.36 ticks, tree = 0.01 MB, solutions = 1)

Root node processing (before b&c):
  Real time             =    3.06 sec. (1885.30 ticks)
Parallel b&c, 32 threads:
  Real time             =    0.00 sec. (0.00 ticks)
  Sync time (average)   =    0.00 sec.
  Wait time (average)   =    0.00 sec.
                          ------------
Total (root+branch&cut) =    3.06 sec. (1885.30 ticks)

Solution pool: 1 solution saved.

MIP - Integer optimal solution:  Objective =  3.3809711968e+03
Solution time =    3.11 sec.  Iterations = 30  Nodes = 0
Deterministic time = 1885.46 ticks  (606.45 ticks/sec)

CPLEX> Incumbent solution written to file 'C:\Users\llavin\Desktop\test919\logs\tmp8labkdmt.cplex.sol'.
CPLEX> NOTE: no warmstart specified for MIP iteration, default behavior is true
NOTE: resolving with all competitive generators using storage-only solution to warmstart
Solving...

Welcome to IBM(R) ILOG(R) CPLEX(R) Interactive Optimizer 12.9.0.0
  with Simplex, Mixed Integer & Barrier Optimizers
5725-A06 5725-A29 5724-Y48 5724-Y49 5724-Y54 5724-Y55 5655-Y21
Copyright IBM Corp. 1988, 2019.  All Rights Reserved.

Type 'help' for a list of available commands.
Type 'help' followed by a command name for more
information on commands.

CPLEX> Logfile 'cplex.log' closed.
Logfile 'C:\Users\llavin\Desktop\test919\logs\tmpvzjzupmd.cplex.log' open.
CPLEX> New value for parallel optimization mode: -1
CPLEX> New value for mixed integer optimality gap tolerance: 0.01
CPLEX> New value for integrality tolerance: 1e-09
CPLEX> New value for feasibility tolerance: 0.01
CPLEX> New value for deterministic time limit in ticks: 75000
CPLEX> Problem 'C:\Users\llavin\Desktop\test919\logs\tmph3j_g_81.pyomo.lp' read.
Read time = 0.23 sec. (14.81 ticks)
CPLEX> MIP start file 'C:\Users\llavin\Desktop\test919\logs\tmpzgorzrr1.cplex.mst' read.
CPLEX> Problem name         : C:\Users\llavin\Desktop\test919\logs\tmph3j_g_81.pyomo.lp
Objective sense      : Maximize
Variables            :   54525  [Nneg: 1,  Box: 22720,  Free: 4464,
                                 Binary: 27340]
Objective nonzeros   :    9676
Linear constraints   :  123205  [Less: 41346,  Greater: 59096,  Equal: 22763]
  Nonzeros           :  291801
  RHS nonzeros       :   67443

Variables            : Min LB: -5000.000        Max UB: 1000000.       
Objective nonzeros   : Min   : 0.4000000        Max   : 784.4750       
Linear constraints   :
  Nonzeros           : Min   : 0.4000000        Max   : 1000000.       
  RHS nonzeros       : Min   : 0.4000000        Max   : 1000000.       
CPLEX> CPXPARAM_Parallel                                -1
CPXPARAM_Simplex_Tolerances_Feasibility          0.01
CPXPARAM_DetTimeLimit                            75000
CPXPARAM_MIP_Tolerances_MIPGap                   0.01
CPXPARAM_MIP_Tolerances_Integrality              1.0000000000000001e-09
Warning:  No solution found from 1 MIP starts.
Retaining values of one MIP start for possible repair.
Tried aggregator 3 times.
MIP Presolve eliminated 88678 rows and 19698 columns.
MIP Presolve added 3371 rows and 0 columns.
MIP Presolve modified 24878 coefficients.
Aggregator did 12967 substitutions.
Reduced MIP has 24931 rows, 21304 columns, and 71121 nonzeros.
Reduced MIP has 8399 binaries, 0 generals, 0 SOSs, and 0 indicators.
Presolve time = 0.30 sec. (176.53 ticks)
Probing fixed 384 vars, tightened 2811 bounds.
Probing time = 1.28 sec. (883.28 ticks)
Tried aggregator 2 times.
MIP Presolve eliminated 869 rows and 769 columns.
MIP Presolve modified 2192 coefficients.
Aggregator did 43 substitutions.
Reduced MIP has 24019 rows, 20492 columns, and 68480 nonzeros.
Reduced MIP has 8015 binaries, 0 generals, 0 SOSs, and 0 indicators.
Presolve time = 0.11 sec. (69.39 ticks)
Probing time = 0.03 sec. (15.67 ticks)
Clique table members: 6247.
MIP emphasis: balance optimality and feasibility.
MIP search method: dynamic search.
Parallel mode: opportunistic, using up to 32 threads.
Root relaxation solution time = 0.44 sec. (335.91 ticks)

        Nodes                                         Cuts/
   Node  Left     Objective  IInf  Best Integer    Best Bound    ItCnt     Gap

      0     0    99646.1260  1838                  99646.1260     7879         
      0     0    96340.4724   605                   Cuts: 864     8306         
      0     0    95709.5350   475                   Cuts: 407     8464         
      0     0    95656.5765   434                   Cuts: 256     8587         
      0     0    95628.1491   385                   Cuts: 149     8672         
      0     0    95625.4138   375                    Cuts: 72     8696         
      0     0    95625.4138   368                    Cuts: 44     8716         
      0     0    95625.4138   358                    Cuts: 46     8729         
      0     0    95625.4138   343                    Cuts: 35     8740         
      0     0    95625.4138   346                    Cuts: 29     8744         
      0     0    95341.5505   341                    Cuts: 35     8760         
      0     0    95313.2389   343                    Cuts: 36     8766         
      0     0    95300.6273   347                    Cuts: 34     8776         
      0     0    95297.1661   345                    Cuts: 29     8781         
Repair heuristic found nothing.
      0    25    infeasible                          Cuts: 22    10942         
Elapsed time = 12.03 sec. (7480.17 ticks, tree = 0.02 MB, solutions = 0)
    130    29    infeasible                        88291.9188    12572         
    562   119    47197.8411   299                  83026.0256    18515         
   1163   371    31481.8103   237                  83026.0256    25429         
   1846  1208    21484.9560   246                  83026.0256    44506         
   2525  1276     -408.5966   190                  83026.0256    45186         
   3287  2200   -33954.0765   189                  83026.0256    56076         
   4268  2390     9244.9489   288                  83026.0256    57770         
   5154  3537   -45358.0636   195                  83026.0256    62471         
   5906  4227     5014.9714   250                  83026.0256    64729         
*  7750+ 3501                         3036.7071    83026.0256              --- 
Elapsed time = 26.86 sec. (10204.45 ticks, tree = 24.20 MB, solutions = 4)
*  8320  5874      integral     0    14332.4768    83026.0256    71848  479.29%
*  8525  6389      integral     0    17114.1495    83026.0256    76337  385.13%
   8704  1831        cutoff          17114.1495    35157.3237    93251  105.43%
  10172   678    17330.9918   151    17114.1495    35157.3237   110516  105.43%
  11938  1162    21140.2206   132    17114.1495    30912.2407   127114   80.62%
  15303  3172    19650.7404   149    17114.1495    30692.1859   159637   79.34%
  18777  3659        cutoff          17114.1495    30606.2672   167166   78.84%
  22126  6445        cutoff          17114.1495    28574.4801   207720   66.96%
  25032  7547        cutoff          17114.1495    24417.3693   232651   42.67%
  27761  8140        cutoff          17114.1495    22934.0977   251442   34.01%
Elapsed time = 74.64 sec. (22160.38 ticks, tree = 66.42 MB, solutions = 6)
  30919  8903        cutoff          17114.1495    22299.3914   280070   30.30%
  34255  9622    19039.8072   130    17114.1495    21960.2242   300530   28.32%
  36403 10507    21351.4426   124    17114.1495    21704.1611   326755   26.82%
  37989 10871    21617.4262   128    17114.1495    21681.0939   336583   26.69%
  40779 10984        cutoff          17114.1495    21651.3808   339799   26.51%
  44274 11465    20794.5920   127    17114.1495    21527.7922   358606   25.79%
  47870 12185    18157.4593   150    17114.1495    21405.2522   376790   25.07%
  51362 13544        cutoff          17114.1495    21231.4729   413689   24.06%
  54713 14134    20157.3992   124    17114.1495    21111.0115   432294   23.35%
  58224 15147    20819.2458   124    17114.1495    21111.0115   459538   23.35%
Elapsed time = 125.16 sec. (31700.26 ticks, tree = 125.23 MB, solutions = 6)
  61711 15524    20226.8465   133    17114.1495    20985.9924   475097   22.62%
  64850 15957    20451.7373   126    17114.1495    20984.5754   493657   22.62%
  66318 16221    18200.9491   126    17114.1495    20852.6273   504026   21.84%
  66660 16590        cutoff          17114.1495    20838.0194   525756   21.76%
  68663 16598        cutoff          17114.1495    20828.6498   525687   21.70%
  71944 16659    19374.2468   135    17114.1495    20827.9602   529899   21.70%
  75370 16793    20304.0902   124    17114.1495    20827.9602   537583   21.70%
  78892 17076        cutoff          17114.1495    20744.0481   549679   21.21%
  82489 18182    17599.6507   140    17114.1495    20731.4558   604947   21.14%
  85955 18866        cutoff          17114.1495    20676.3729   633411   20.81%
Elapsed time = 170.73 sec. (41327.17 ticks, tree = 155.81 MB, solutions = 6)
  89354 19395    infeasible          17114.1495    20638.0836   655373   20.59%
  92789 18599    19291.1617   133    17114.1495    20579.0952   620345   20.25%
  96296 19364    19019.3405   127    17114.1495    20526.6688   654042   19.94%
  99866 19990    19102.4837   136    17114.1495    20524.8709   676858   19.93%
 103538 21281    18971.8018   132    17114.1495    20466.6125   714776   19.59%
 107139 22408    20067.5450   127    17114.1495    20415.5169   751454   19.29%
 110746 21919    19093.1890   135    17114.1495    20373.9442   731421   19.05%
 114285 22864    19200.7550   133    17114.1495    20325.0881   764544   18.76%
 117632 24565    18851.8812   123    17114.1495    20264.2906   815430   18.41%
 120687 25139    20089.1764   130    17114.1495    20239.8100   834974   18.26%
Elapsed time = 220.30 sec. (50866.59 ticks, tree = 211.22 MB, solutions = 6)
 122968 24446    19866.4999   132    17114.1495    20212.6979   812449   18.11%
 124386 24973    19899.4375   128    17114.1495    20182.2877   830252   17.93%
 125680 27036    19925.8364   131    17114.1495    20153.0701   898269   17.76%
 128049 26751    infeasible          17114.1495    20150.4876   886913   17.74%
 131337 26996    17795.8255   128    17114.1495    20150.4876   895876   17.74%
 134878 27162        cutoff          17114.1495    20150.4876   903164   17.74%
 138540 28079        cutoff          17114.1495    20089.1764   938280   17.38%
 142076 27663    infeasible          17114.1495    20071.7859   922005   17.28%
 145510 29124        cutoff          17114.1495    20061.8776   969685   17.22%
 148858 29340    19092.3877   125    17114.1495    20035.0948   974669   17.07%
Elapsed time = 269.27 sec. (60408.14 ticks, tree = 249.04 MB, solutions = 6)
 152200 30146    19687.8113   121    17114.1495    20017.9294  1008784   16.97%
 155578 30135    infeasible          17114.1495    20007.0763  1009635   16.90%
 159082 30904    infeasible          17114.1495    19993.9991  1046004   16.83%
 162612 31173    18968.4702   128    17114.1495    19979.4096  1057965   16.74%
 166220 31406    19181.2914   130    17114.1495    19929.1459  1071481   16.45%
 169733 32118    19483.9205   125    17114.1495    19929.1459  1110162   16.45%
 172574 33061    18822.4541   131    17114.1495    19904.9905  1159557   16.31%
 174840 32739        cutoff          17114.1495    19890.3225  1144658   16.22%
 176744 34720    18491.3368   129    17114.1495    19890.3225  1245267   16.22%
 178191 34933    19126.6466   122    17114.1495    19854.8726  1253395   16.01%
Elapsed time = 309.14 sec. (69948.62 ticks, tree = 299.96 MB, solutions = 6)
 179953 34986    19624.5351   123    17114.1495    19844.1061  1260083   15.95%
 182157 35032    19689.2325   125    17114.1495    19844.1061  1265220   15.95%
 184399 34862    19502.0941   130    17114.1495    19844.1061  1251438   15.95%
 185925 35050    18366.1042   133    17114.1495    19844.1061  1264254   15.95%
 187092 34977    18557.4102   126    17114.1495    19844.1061  1262732   15.95%

GUB cover cuts applied:  1
Clique cuts applied:  27
Cover cuts applied:  28
Implied bound cuts applied:  54
Flow cuts applied:  341
Mixed integer rounding cuts applied:  37
Gomory fractional cuts applied:  82

Root node processing (before b&c):
  Real time             =   10.56 sec. (7468.13 ticks)
Parallel b&c, 32 threads:
  Real time             =  309.03 sec. (67564.31 ticks)
  Sync time (average)   =    2.13 sec.
  Wait time (average)   =    0.24 sec.
                          ------------
Total (root+branch&cut) =  319.59 sec. (75032.44 ticks)

Solution pool: 6 solutions saved.

MIP - Deterministic time limit exceeded, integer feasible:  Objective =  1.7114149541e+04
Current MIP best bound =  1.9764435331e+04 (gap = 2650.29, 15.49%)
Solution time =  319.61 sec.  Iterations = 1328914  Nodes = 187263 (35993)
Deterministic time = 75032.59 ticks  (234.76 ticks/sec)

CPLEX> Incumbent solution written to file 'C:\Users\llavin\Desktop\test919\logs\tmp4nx3wv85.cplex.sol'.
CPLEX> Exporting results... 
